<number of tasks>
50

<cycle time>
1000

<order strength>
0.603


<task times>
1 429
2 430
3 500
4 494
5 207
6 403
7 757
8 471
9 380
10 464
11 297
12 352
13 643
14 631
15 747
16 358
17 535
18 287
19 521
20 609
21 342
22 546
23 833
24 703
25 368
26 697
27 291
28 576
29 533
30 530
31 566
32 351
33 307
34 363
35 479
36 543
37 707
38 563
39 368
40 488
41 381
42 633
43 509
44 428
45 494
46 615
47 451
48 441
49 515
50 329

<precedence relations>
1,4
1,5
1,17
1,19
2,6
2,8
2,10
3,6
3,7
3,11
4,9
4,10
4,11
5,26
6,12
6,14
6,23
7,9
7,10
8,11
8,13
9,20
9,21
9,24
10,16
10,18
11,15
11,20
12,15
12,17
13,15
13,19
13,20
14,25
15,22
15,28
16,36
16,50
17,37
17,42
18,22
18,29
19,24
19,26
20,23
20,25
21,50
22,32
23,40
23,41
24,46
25,27
25,29
26,27
26,28
27,31
27,32
28,36
28,37
29,30
29,31
29,32
29,33
30,34
30,43
30,48
31,36
31,43
32,35
33,35
34,50
35,37
36,38
36,39
36,41
37,41
37,43
38,44
39,40
39,42
40,45
40,49
41,46
41,48
43,47
43,49
43,50

<end>
